db/data/11614108653307128572903822162369120757.z3.out
-------------------
2500.116733450
